# avogadro generated ORCA input file 
# Basic Mode
# 
! MP2 SP def2-SVP 

* xyz 4 1
   F        1.07978       -0.42764        0.49295
  Xe        2.91220       -0.03544        0.07350
   F        3.00165        1.58805       -0.94816
   F        3.91009        0.17629        1.70044
   F        3.65728       -1.47847       -0.95121
*

