# avogadro generated ORCA input file 
# Basic Mode
# 
! MP2 OPT def2-SVP 

* xyz 0 1
  Br        0.93817        0.10529        0.01903
   F        0.93830       -0.16144        1.84732
   F        0.93792        1.82218       -0.66371
   F        0.93823       -1.34497       -1.12579
   F       -0.90952        0.10512        0.01895
   F        2.78580        0.10552        0.01870
*

