# avogadro generated ORCA input file 
# Basic Mode
# 
! MP2 OPT def2-SVP 

* xyz 0 1
   F        2.88711        0.74549        1.31196
   S        3.59081       -0.00214       -0.05613
   F        4.29516       -0.74948       -1.42402
   F        3.11522       -1.53460        0.53647
   F        2.54316        0.88252       -1.07867
*

